; benchmark generated from python API
(set-info :status unknown)
(declare-fun s () Int)
(define-funs-rec ( ( Tn_01 ((x!1 Int)) Int)
                   ( pn_01 ((x!1 Int)) Int)
                   ( T2_02 ((x!1 Int)) Int)
                   ( p2_02 ((x!1 Int)) Int))
                 ( (mod ((_ pn_01 0) x!1) s)
                   (ite (= x!1 0) 0 (+ ((_ pn_01 0) (div x!1 s)) x!1))
                   (let ((a!1 (/ (- 1.0 (^ (- 1) ((_ p2_02 0) x!1))) 2.0)))
                     (to_int a!1))
                   (ite (= x!1 0) 0 (+ ((_ p2_02 0) (div x!1 2)) (mod x!1 2)))))
(assert
 (forall ((n Int) )(let ((?x492 ((_ Tn_01 0) n)))
 (let (($x407 (= ?x492 n)))
 (let ((?x488 ((_ T2_02 0) n)))
 (let (($x370 (= ?x488 n)))
 (let (($x460 (and $x370 $x407)))
 (let (($x387 (< n s)))
 (let (($x463 (>= n 0)))
 (let (($x412 (and $x463 $x387)))
 (=> $x412 $x460))))))))))
 )
(assert
 (forall ((n Int) )(let ((?x492 ((_ Tn_01 0) n)))
(let ((?x488 ((_ T2_02 0) n)))
(let (($x425 (= ?x488 ?x492)))
(let (($x463 (>= n 0)))
(=> $x463 $x425))))))
)
(check-sat)
